33
17
18
334
328
263
447
386
718
666
752
1015
1618
1786
1344
2275
1287
4392
2533
3899
1951
6445
8500
9438
9126
9350
9727
1084
14679
1158
16130
15981
1508
14389
12196
14485
17113
10695
1879
14786
24710
2862
30123
30076
19857
34186
18416
36123
33421
44673
39042
45208
6359
31593
43952
32025
39801
24465
24002
14947
17140
9776
70341
45827
72044
67409
57240
60471
64703
13680
70943
8924
47198
1846
57263
51376
20027
99916
106869
107582
63502
87601
96643
128075
82373
115172
79438
39514
46991
95617
133140
56529
57058
150543
105138
148278
80283
149611
111509
145227
